NAME: tsp_379
COMMENT: Random TSP instance
TYPE: TSP
DIMENSION: 50
EDGE_WEIGHT_TYPE: EUC_2D
NODE_COORD_SECTION
1 862 741
2 994 622
3 451 399
4 736 362
5 553 797
6 122 231
7 209 533
8 824 251
9 822 141
10 573 138
11 26 140
12 680 533
13 466 48
14 127 857
15 250 782
16 315 255
17 114 413
18 903 602
19 178 777
20 606 376
21 74 985
22 947 617
23 930 335
24 459 578
25 352 459
26 410 563
27 67 713
28 969 364
29 291 465
30 758 874
31 855 179
32 901 586
33 676 861
34 567 834
35 660 123
36 484 110
37 756 534
38 830 663
39 928 326
40 712 45
41 352 124
42 371 901
43 531 220
44 680 611
45 873 224
46 430 202
47 693 720
48 72 246
49 986 641
50 894 853
